data/solutions/planning/wellformed/moderate/sequential/wellformed_moderate_instance26_cplex.sol
Elapsed time: 0.12
Nodes explored: -
Nodes left: -
Relative gap: -
Upper bound: 7317.0
Lower bound: -
C[0]=488.0
C[1]=488.0
C[2]=487.0
C[3]=487.0
y[0]=0
y[1]=2
y[2]=0
y[3]=0
y[4]=0
y[5]=1
y[6]=3
y[7]=2
y[8]=3
y[9]=1
y[10]=1
y[11]=3
y[12]=2
y[13]=3
y[14]=0
y[15]=1
y[16]=2
y[17]=3
y[18]=2
y[19]=1
