data/solutions/planning/wellformed/moderate/sequential/wellformed_moderate_instance26_cplex.log
Found incumbent of value 1950.000000 after 0.00 sec. (0.01 ticks)
Tried aggregator 2 times.
Aggregator did 2 substitutions.
Reduced MIP has 25 rows, 82 columns, and 166 nonzeros.
Reduced MIP has 80 binaries, 0 generals, 0 SOSs, and 0 indicators.
Presolve time = 0.00 sec. (0.19 ticks)
Probing fixed 0 vars, tightened 7 bounds.
Probing time = 0.00 sec. (0.10 ticks)
Tried aggregator 1 time.
Reduced MIP has 25 rows, 82 columns, and 166 nonzeros.
Reduced MIP has 80 binaries, 2 generals, 0 SOSs, and 0 indicators.
Presolve time = 0.00 sec. (0.11 ticks)
Probing time = 0.00 sec. (0.06 ticks)
Clique table members: 20.
MIP emphasis: balance optimality and feasibility.
MIP search method: dynamic search.
Parallel mode: none, using 1 thread.
Root relaxation solution time = 0.00 sec. (0.12 ticks)

        Nodes                                         Cuts/
   Node  Left     Objective  IInf  Best Integer    Best Bound    ItCnt     Gap

*     0+    0                         1950.0000        0.0000           100.00%
      0     0      487.5000     8     1950.0000      487.5000       24   75.00%
      0     0      488.0000    10     1950.0000       Cuts: 9       35   74.97%
*     0+    0                          563.0000      488.0000            13.32%
      0     0      488.0000    14      563.0000       Cuts: 7       44   13.32%
      0     0      488.0000     7      563.0000     Covers: 1       45   13.32%
*     0+    0                          506.0000      488.0000             3.56%
      0     0      488.0000    10      506.0000       Cuts: 2       48    3.56%
      0     2      488.0000     5      506.0000      488.0000       48    3.56%
Elapsed time = 0.01 sec. (3.97 ticks, tree = 0.01 MB, solutions = 3)
*    30+   14                          505.0000      488.0000             3.37%
*   132    69      integral     0      498.0000      488.0000      295    2.01%
*   510+  221                          493.0000      488.0000             1.01%
*   600+  245                          491.0000      488.0000             0.61%
*  1479     0      integral     0      488.0000      488.0000     2922    0.00%

Cover cuts applied:  74
Gomory fractional cuts applied:  1

Root node processing (before b&c):
  Real time             =    0.01 sec. (3.97 ticks)
Sequential b&c:
  Real time             =    0.10 sec. (87.88 ticks)
                          ------------
Total (root+branch&cut) =    0.11 sec. (91.85 ticks)
2 of 8 MIP starts provided solutions.
MIP start 'm1' defined initial solution with objective 488.0000.
Tried aggregator 2 times.
MIP Presolve eliminated 1 rows and 0 columns.
Aggregator did 1 substitutions.
Reduced MIP has 26 rows, 83 columns, and 168 nonzeros.
Reduced MIP has 80 binaries, 0 generals, 0 SOSs, and 0 indicators.
Presolve time = 0.00 sec. (0.17 ticks)
Probing time = 0.00 sec. (0.06 ticks)
Cover probing fixed 0 vars, tightened 4 bounds.
Tried aggregator 1 time.
Reduced MIP has 26 rows, 83 columns, and 168 nonzeros.
Reduced MIP has 80 binaries, 3 generals, 0 SOSs, and 0 indicators.
Presolve time = 0.00 sec. (0.11 ticks)
Probing time = 0.00 sec. (0.06 ticks)
Clique table members: 20.
MIP emphasis: balance optimality and feasibility.
MIP search method: dynamic search.
Parallel mode: none, using 1 thread.
Root relaxation solution time = 0.00 sec. (0.11 ticks)

        Nodes                                         Cuts/
   Node  Left     Objective  IInf  Best Integer    Best Bound    ItCnt     Gap

*     0+    0                          488.0000        0.0000           100.00%
      0     0      487.3333     8      488.0000      487.3333       23    0.14%
      0     0        cutoff            488.0000      487.3333       23    0.14%
Elapsed time = 0.00 sec. (0.71 ticks, tree = 0.01 MB, solutions = 1)

Root node processing (before b&c):
  Real time             =    0.00 sec. (0.71 ticks)
Sequential b&c:
  Real time             =    0.00 sec. (0.00 ticks)
                          ------------
Total (root+branch&cut) =    0.00 sec. (0.71 ticks)
1 of 1 MIP starts provided solutions.
MIP start 'm1' defined initial solution with objective 487.0000.
Tried aggregator 2 times.
MIP Presolve eliminated 3 rows and 0 columns.
Aggregator did 1 substitutions.
Reduced MIP has 26 rows, 83 columns, and 168 nonzeros.
Reduced MIP has 80 binaries, 0 generals, 0 SOSs, and 0 indicators.
Presolve time = 0.00 sec. (0.17 ticks)
Probing time = 0.00 sec. (0.06 ticks)
Cover probing fixed 0 vars, tightened 4 bounds.
Tried aggregator 1 time.
Reduced MIP has 26 rows, 83 columns, and 168 nonzeros.
Reduced MIP has 80 binaries, 3 generals, 0 SOSs, and 0 indicators.
Presolve time = 0.00 sec. (0.11 ticks)
Probing time = 0.00 sec. (0.06 ticks)
Clique table members: 20.
MIP emphasis: balance optimality and feasibility.
MIP search method: dynamic search.
Parallel mode: none, using 1 thread.
Root relaxation solution time = 0.00 sec. (0.07 ticks)

        Nodes                                         Cuts/
   Node  Left     Objective  IInf  Best Integer    Best Bound    ItCnt     Gap

*     0+    0                          487.0000        0.0000           100.00%
      0     0        cutoff            487.0000                      8    0.00%

Root node processing (before b&c):
  Real time             =    0.00 sec. (0.66 ticks)
Sequential b&c:
  Real time             =    0.00 sec. (0.00 ticks)
                          ------------
Total (root+branch&cut) =    0.00 sec. (0.66 ticks)
1 of 1 MIP starts provided solutions.
MIP start 'm1' defined initial solution with objective 487.0000.
Tried aggregator 2 times.
MIP Presolve eliminated 6 rows and 0 columns.
Aggregator did 1 substitutions.
Reduced MIP has 26 rows, 83 columns, and 168 nonzeros.
Reduced MIP has 80 binaries, 0 generals, 0 SOSs, and 0 indicators.
Presolve time = 0.00 sec. (0.17 ticks)
Probing time = 0.00 sec. (0.06 ticks)
Cover probing fixed 0 vars, tightened 4 bounds.
Tried aggregator 1 time.
Reduced MIP has 26 rows, 83 columns, and 168 nonzeros.
Reduced MIP has 80 binaries, 3 generals, 0 SOSs, and 0 indicators.
Presolve time = 0.00 sec. (0.11 ticks)
Probing time = 0.00 sec. (0.06 ticks)
Clique table members: 20.
MIP emphasis: balance optimality and feasibility.
MIP search method: dynamic search.
Parallel mode: none, using 1 thread.
Root relaxation solution time = 0.00 sec. (0.06 ticks)

        Nodes                                         Cuts/
   Node  Left     Objective  IInf  Best Integer    Best Bound    ItCnt     Gap

*     0+    0                          487.0000        0.0000           100.00%
      0     0        cutoff            487.0000                      4    0.00%

Root node processing (before b&c):
  Real time             =    0.00 sec. (0.66 ticks)
Sequential b&c:
  Real time             =    0.00 sec. (0.00 ticks)
                          ------------
Total (root+branch&cut) =    0.00 sec. (0.66 ticks)
